n=30;
demand=2;
horizon=30;
est=[13,16,7,1,29,15,14,4,29,23,27,0,10,3,1,4,10,6,13,0,9,27,19,21,5,0,29,29,24,8];
processing_time=[7,10,2,1,1,2,4,2,1,5,1,19,20,16,26,16,8,19,14,22,11,1,8,5,7,2,1,1,4,6];
lct=[23,28,23,17,30,22,18,9,30,30,30,22,30,26,28,20,19,26,27,24,24,28,27,28,29,26,30,30,30,28];
